solving instance mcf nodes c25_100_30_V_T_5 3 6 square
Set parameter TokenServer to value "licences.gerad.lan"
Set parameter MIPGap to value 1e-06
Set parameter FuncPieceError to value 1e-06
Set parameter Threads to value 1
Set parameter FuncPieces to value -2
Set parameter TimeLimit to value 3600
Gurobi Optimizer version 12.0.2 build v12.0.2rc0 (linux64 - "AlmaLinux 9.6 (Sage Margay)")

CPU model: Intel(R) Xeon(R) Gold 6258R CPU @ 2.70GHz, instruction set [SSE2|AVX|AVX2|AVX512]
Thread count: 56 physical cores, 56 logical processors, using up to 1 threads

Non-default parameters:
TimeLimit  3600
MIPGap  1e-06
Threads  1
FuncPieces  -2
FuncPieceError  1e-06

Optimize a model with 1025 rows, 3300 columns and 12425 nonzeros
Model fingerprint: 0x8f139d29
Model has 25 function constraints treated as nonlinear
  25 POW
Variable types: 3175 continuous, 125 integer (125 binary)
Coefficient statistics:
  Matrix range     [2e-02, 1e+03]
  Objective range  [1e+00, 1e+00]
  Bounds range     [5e+00, 1e+10]
  RHS range        [3e+01, 3e+01]
Warning: Model contains large bounds
         Consider reformulating model or setting NumericFocus parameter
         to avoid numerical issues.
Presolve removed 207 rows and 314 columns
Presolve time: 0.01s
Presolved: 818 rows, 2986 columns, 11183 nonzeros
Presolved model has 25 quadratic objective terms
Variable types: 2986 continuous, 0 integer (0 binary)
Root relaxation presolve removed 30 rows and 0 columns
Root relaxation presolve time: 0.02s
Root relaxation presolved: 788 rows, 2986 columns, 10881 nonzeros
Root relaxation presolved model has 25 quadratic objective terms
Root barrier log...

Ordering time: 0.01s

Barrier statistics:
 AA' NZ     : 1.038e+04
 Factor NZ  : 5.350e+04 (roughly 2 MB of memory)
 Factor Ops : 4.720e+06 (less than 1 second per iteration)
 Threads    : 1

                  Objective                Residual
Iter       Primal          Dual         Primal    Dual     Compl     Time
   0   6.12288194e+06 -2.46111218e+07  2.10e+05 8.45e+02  8.30e+05     0s
   1   3.14978278e+05 -1.89746208e+07  3.65e+04 1.51e+02  1.52e+05     0s
   2   2.12407047e+04 -1.63175211e+07  6.86e+02 2.81e+00  5.40e+03     0s
   3   2.32353664e+04 -1.14281496e+07  3.70e+02 1.53e+00  3.16e+03     0s
   4   4.22610876e+04 -4.94491033e+06  7.04e+01 2.90e-01  1.05e+03     0s
   5   4.56626191e+04 -8.43448317e+05  5.28e+00 2.29e-02  1.58e+02     0s
   6   4.31392790e+04 -1.20911221e+05  4.43e-01 2.73e-03  2.73e+01     0s
   7   3.42080899e+04 -6.50251775e+04  5.70e-03 9.64e-04  1.64e+01     0s
   8   2.72170917e+04 -3.33947354e+04  8.98e-02 4.24e-04  1.00e+01     0s
   9   2.30646691e+04 -1.79746242e+04  4.55e-02 2.52e-04  6.77e+00     0s
  10   1.79988338e+04 -5.21401289e+03  6.17e-03 1.08e-04  3.83e+00     0s
  11   1.46882191e+04  3.24864386e+03  3.81e-05 6.44e-06  1.88e+00     0s
  12   1.21057686e+04  7.94825239e+03  1.14e-05 1.92e-06  6.85e-01     0s
  13   1.09269816e+04  9.66718734e+03  1.14e-11 1.91e-12  2.07e-01     0s
  14   1.06134675e+04  1.00018448e+04  5.36e-12 9.02e-13  1.01e-01     0s
  15   1.04421772e+04  1.01880715e+04  9.72e-14 4.26e-14  4.18e-02     0s
  16   1.03059763e+04  1.03025594e+04  1.80e-13 7.04e-14  5.63e-04     0s
  17   1.03041138e+04  1.03041093e+04  2.57e-12 6.61e-14  7.48e-07     0s
  18   1.03041112e+04  1.03041112e+04  1.70e-11 5.68e-14  7.75e-10     0s

Barrier solved model in 18 iterations and 0.10 seconds (0.05 work units)
Optimal objective 1.03041112e+04


Root relaxation: objective 1.030411e+04, 0 iterations, 0.09 seconds (0.04 work units)

    Nodes    |    Current Node    |     Objective Bounds      |     Work
 Expl Unexpl |  Obj  Depth IntInf | Incumbent    BestBd   Gap | It/Node Time

*    0     0               0    10304.111211 10304.1112  0.00%     -    0s

Explored 1 nodes (0 simplex iterations) in 0.10 seconds (0.05 work units)
Thread count was 1 (of 56 available processors)

Solution count 1: 10304.1 

Optimal solution found (tolerance 1.00e-06)
Best objective 1.030411121101e+04, best bound 1.030411121101e+04, gap 0.0000%

User-callback calls 406, time in user-callback 0.00 sec
primal_bound = 10304.111211014239, dual_bound = 10304.111211014239, gap = 0.0, time = 0.11
